% costo por MW producido en cada planta
costo=[50.0, 20.0, 10.0];
% Capacidad diaria de las centrales (en MW)
capacidad=[1000.0, 300.0, 500.0];
% Número de clientes
num_clientes=4;
% Número de días
num_dias=3;
% número de plantas
plantas=3;
%demanda
demanda=[| 80.0, 110.0, 90.0 
         | 150.0, 98.0, 340.0 
         | 90.0, 20.0, 212.0 
         | 300.0, 210.0, 200.0 |];    
% Pago por MW de cada cliente
pagoCliente=[100.0, 110.0, 95.0, 105.0];